VRPTWMS/instances/mip/toDelete/freight_old/5/N5-C_DV10-C_SV50_F12_22_No_1.lp
\ N5-C_DV10-C_SV50_F12_22

Minimize
  11.05 x_d0_c1 + 11.05 z_d0_c1 + 28.0 x_d0_c2 + 28.0 z_d0_c2 + 21.54 x_d0_c3 + 21.54 z_d0_c3 + 30.0 x_d0_c4 + 30.0 z_d0_c4 + 13.15 x_d0_c5 + 13.15 z_d0_c5 + 31.02 x_c1_c2 + 31.02 x_c2_c1 + 31.02 z_c1_c2 + 31.02 z_c2_c1 + 28.32 x_c1_c3 + 28.32 x_c3_c1 + 28.32 z_c1_c3 + 28.32 z_c3_c1 + 23.02 x_c1_c4 + 23.02 x_c4_c1 + 23.02 z_c1_c4 + 23.02 z_c4_c1 + 24.19 x_c1_c5 + 24.19 x_c5_c1 + 24.19 z_c1_c5 + 24.19 z_c5_c1 + 11.31 x_c2_c3 + 11.31 x_c3_c2 + 11.31 z_c2_c3 + 11.31 z_c3_c2 + 26.0 x_c2_c4 + 26.0 x_c4_c2 + 26.0 z_c2_c4 + 26.0 z_c4_c2 + 29.07 x_c2_c5 + 29.07 x_c5_c2 + 29.07 z_c2_c5 + 29.07 z_c5_c2 + 32.06 x_c3_c4 + 32.06 x_c4_c3 + 32.06 z_c3_c4 + 32.06 z_c4_c3 + 18.68 x_c3_c5 + 18.68 x_c5_c3 + 18.68 z_c3_c5 + 18.68 z_c5_c3 + 40.31 x_c4_c5 + 40.31 x_c5_c4 + 40.31 z_c4_c5 + 40.31 z_c5_c4 + 11.05 x_c1_dN + 11.05 z_c1_dN + 28.0 x_c2_dN + 28.0 z_c2_dN + 21.54 x_c3_dN + 21.54 z_c3_dN + 30.0 x_c4_dN + 30.0 z_c4_dN + 13.15 x_c5_dN + 13.15 z_c5_dN + 1000.0 x_d0_c1 + 1000.0 z_d0_c1 + 1000.0 x_d0_c2 + 1000.0 z_d0_c2 + 1000.0 x_d0_c3 + 1000.0 z_d0_c3 + 1000.0 x_d0_c4 + 1000.0 z_d0_c4 + 1000.0 x_d0_c5 + 1000.0 z_d0_c5
Subject To
  Successor_DV_c1: x_c1_c2 + x_c1_c3 + x_c1_c4 + x_c1_c5 + x_c1_dN = 1
  Successor_DV_c2: x_c2_c1 + x_c2_c3 + x_c2_c4 + x_c2_c5 + x_c2_dN = 1
  Successor_DV_c3: x_c3_c1 + x_c3_c2 + x_c3_c4 + x_c3_c5 + x_c3_dN = 1
  Successor_DV_c4: x_c4_c1 + x_c4_c2 + x_c4_c3 + x_c4_c5 + x_c4_dN = 1
  Successor_DV_c5: x_c5_c1 + x_c5_c2 + x_c5_c3 + x_c5_c4 + x_c5_dN = 1
  Successor_SV_c1: z_c1_c2 + z_c1_c3 + z_c1_c4 + z_c1_c5 + z_c1_dN <= 1
  Successor_SV_c2: z_c2_c1 + z_c2_c3 + z_c2_c4 + z_c2_c5 + z_c2_dN <= 1
  Successor_SV_c3: z_c3_c1 + z_c3_c2 + z_c3_c4 + z_c3_c5 + z_c3_dN <= 1
  Successor_SV_c4: z_c4_c1 + z_c4_c2 + z_c4_c3 + z_c4_c5 + z_c4_dN <= 1
  Successor_SV_c5: z_c5_c1 + z_c5_c2 + z_c5_c3 + z_c5_c4 + z_c5_dN <= 1
  Flow_DV_c1: x_d0_c1 + x_c2_c1 + x_c3_c1 + x_c4_c1 + x_c5_c1 - x_c1_dN - x_c1_c2 - x_c1_c3 - x_c1_c4 - x_c1_c5 = 0
  Flow_DV_c2: x_d0_c2 + x_c1_c2 + x_c3_c2 + x_c4_c2 + x_c5_c2 - x_c2_dN - x_c2_c1 - x_c2_c3 - x_c2_c4 - x_c2_c5 = 0
  Flow_DV_c3: x_d0_c3 + x_c1_c3 + x_c2_c3 + x_c4_c3 + x_c5_c3 - x_c3_dN - x_c3_c1 - x_c3_c2 - x_c3_c4 - x_c3_c5 = 0
  Flow_DV_c4: x_d0_c4 + x_c1_c4 + x_c2_c4 + x_c3_c4 + x_c5_c4 - x_c4_dN - x_c4_c1 - x_c4_c2 - x_c4_c3 - x_c4_c5 = 0
  Flow_DV_c5: x_d0_c5 + x_c1_c5 + x_c2_c5 + x_c3_c5 + x_c4_c5 - x_c5_dN - x_c5_c1 - x_c5_c2 - x_c5_c3 - x_c5_c4 = 0
  Flow_SV_c1: z_d0_c1 + z_c2_c1 + z_c3_c1 + z_c4_c1 + z_c5_c1 - z_c1_dN - z_c1_c2 - z_c1_c3 - z_c1_c4 - z_c1_c5 = 0
  Flow_SV_c2: z_d0_c2 + z_c1_c2 + z_c3_c2 + z_c4_c2 + z_c5_c2 - z_c2_dN - z_c2_c1 - z_c2_c3 - z_c2_c4 - z_c2_c5 = 0
  Flow_SV_c3: z_d0_c3 + z_c1_c3 + z_c2_c3 + z_c4_c3 + z_c5_c3 - z_c3_dN - z_c3_c1 - z_c3_c2 - z_c3_c4 - z_c3_c5 = 0
  Flow_SV_c4: z_d0_c4 + z_c1_c4 + z_c2_c4 + z_c3_c4 + z_c5_c4 - z_c4_dN - z_c4_c1 - z_c4_c2 - z_c4_c3 - z_c4_c5 = 0
  Flow_SV_c5: z_d0_c5 + z_c1_c5 + z_c2_c5 + z_c3_c5 + z_c4_c5 - z_c5_dN - z_c5_c1 - z_c5_c2 - z_c5_c3 - z_c5_c4 = 0
  travelDV_d0_c1: tauD_d0 - tauD_c1 + 102.7625 x_d0_c1 <= 100.0
  travelDV_d0_c2: tauD_d0 - tauD_c2 + 107.0 x_d0_c2 <= 100.0
  travelDV_d0_c3: tauD_d0 - tauD_c3 + 105.385 x_d0_c3 <= 100.0
  travelDV_d0_c4: tauD_d0 - tauD_c4 + 107.5 x_d0_c4 <= 100.0
  travelDV_d0_c5: tauD_d0 - tauD_c5 + 103.2875 x_d0_c5 <= 100.0
  travelDV_c1_c2: tauD_c1 - tauD_c2 + 110.755 x_c1_c2 + 8.0 p_1 <= 100.0
  travelDV_c1_c3: tauD_c1 - tauD_c3 + 110.08 x_c1_c3 + 8.0 p_1 <= 100.0
  travelDV_c1_c4: tauD_c1 - tauD_c4 + 108.755 x_c1_c4 + 8.0 p_1 <= 100.0
  travelDV_c1_c5: tauD_c1 - tauD_c5 + 109.0475 x_c1_c5 + 8.0 p_1 <= 100.0
  travelDV_c2_c1: tauD_c2 - tauD_c1 + 112.755 x_c2_c1 + 8.0 p_2 <= 100.0
  travelDV_c2_c3: tauD_c2 - tauD_c3 + 107.8275 x_c2_c3 + 8.0 p_2 <= 100.0
  travelDV_c2_c4: tauD_c2 - tauD_c4 + 111.5 x_c2_c4 + 8.0 p_2 <= 100.0
  travelDV_c2_c5: tauD_c2 - tauD_c5 + 112.2675 x_c2_c5 + 8.0 p_2 <= 100.0
  travelDV_c3_c1: tauD_c3 - tauD_c1 + 110.08 x_c3_c1 + 8.0 p_3 <= 100.0
  travelDV_c3_c2: tauD_c3 - tauD_c2 + 105.8275 x_c3_c2 + 8.0 p_3 <= 100.0
  travelDV_c3_c4: tauD_c3 - tauD_c4 + 111.015 x_c3_c4 + 8.0 p_3 <= 100.0
  travelDV_c3_c5: tauD_c3 - tauD_c5 + 107.67 x_c3_c5 + 8.0 p_3 <= 100.0
  travelDV_c4_c1: tauD_c4 - tauD_c1 + 108.755 x_c4_c1 + 8.0 p_4 <= 100.0
  travelDV_c4_c2: tauD_c4 - tauD_c2 + 109.5 x_c4_c2 + 8.0 p_4 <= 100.0
  travelDV_c4_c3: tauD_c4 - tauD_c3 + 111.015 x_c4_c3 + 8.0 p_4 <= 100.0
  travelDV_c4_c5: tauD_c4 - tauD_c5 + 113.0775 x_c4_c5 + 8.0 p_4 <= 100.0
  travelDV_c5_c1: tauD_c5 - tauD_c1 + 113.0475 x_c5_c1 + 8.0 p_5 <= 100.0
  travelDV_c5_c2: tauD_c5 - tauD_c2 + 114.2675 x_c5_c2 + 8.0 p_5 <= 100.0
  travelDV_c5_c3: tauD_c5 - tauD_c3 + 111.67 x_c5_c3 + 8.0 p_5 <= 100.0
  travelDV_c5_c4: tauD_c5 - tauD_c4 + 117.0775 x_c5_c4 + 8.0 p_5 <= 100.0
  TravelSV_d0_c1: tauS_d0 - tauS_c1 + 100.0 z_d0_c1 <= 97.2375
  TravelSV_d0_c2: tauS_d0 - tauS_c2 + 100.0 z_d0_c2 <= 93.0
  TravelSV_d0_c3: tauS_d0 - tauS_c3 + 100.0 z_d0_c3 <= 94.615
  TravelSV_d0_c4: tauS_d0 - tauS_c4 + 100.0 z_d0_c4 <= 92.5
  TravelSV_d0_c5: tauS_d0 - tauS_c5 + 100.0 z_d0_c5 <= 96.7125
  TravelSV_d0_dN: tauS_d0 - tauS_dN + 100.0 z_d0_dN <= 100.0
  TravelSV_c1_c2: tauS_c1 - tauS_c2 + 100.0 z_c1_c2 <= 84.245
  TravelSV_c1_c3: tauS_c1 - tauS_c3 + 100.0 z_c1_c3 <= 84.92
  TravelSV_c1_c4: tauS_c1 - tauS_c4 + 100.0 z_c1_c4 <= 86.245
  TravelSV_c1_c5: tauS_c1 - tauS_c5 + 100.0 z_c1_c5 <= 85.9525
  TravelSV_c1_dN: tauS_c1 - tauS_dN + 100.0 z_c1_dN <= 89.2375
  TravelSV_c2_c1: tauS_c2 - tauS_c1 + 100.0 z_c2_c1 <= 84.245
  TravelSV_c2_c3: tauS_c2 - tauS_c3 + 100.0 z_c2_c3 <= 89.1725
  TravelSV_c2_c4: tauS_c2 - tauS_c4 + 100.0 z_c2_c4 <= 85.5
  TravelSV_c2_c5: tauS_c2 - tauS_c5 + 100.0 z_c2_c5 <= 84.7325
  TravelSV_c2_dN: tauS_c2 - tauS_dN + 100.0 z_c2_dN <= 85.0
  TravelSV_c3_c1: tauS_c3 - tauS_c1 + 100.0 z_c3_c1 <= 84.92
  TravelSV_c3_c2: tauS_c3 - tauS_c2 + 100.0 z_c3_c2 <= 89.1725
  TravelSV_c3_c4: tauS_c3 - tauS_c4 + 100.0 z_c3_c4 <= 83.985
  TravelSV_c3_c5: tauS_c3 - tauS_c5 + 100.0 z_c3_c5 <= 87.33
  TravelSV_c3_dN: tauS_c3 - tauS_dN + 100.0 z_c3_dN <= 86.615
  TravelSV_c4_c1: tauS_c4 - tauS_c1 + 100.0 z_c4_c1 <= 86.245
  TravelSV_c4_c2: tauS_c4 - tauS_c2 + 100.0 z_c4_c2 <= 85.5
  TravelSV_c4_c3: tauS_c4 - tauS_c3 + 100.0 z_c4_c3 <= 83.985
  TravelSV_c4_c5: tauS_c4 - tauS_c5 + 100.0 z_c4_c5 <= 81.9225
  TravelSV_c4_dN: tauS_c4 - tauS_dN + 100.0 z_c4_dN <= 84.5
  TravelSV_c5_c1: tauS_c5 - tauS_c1 + 100.0 z_c5_c1 <= 85.9525
  TravelSV_c5_c2: tauS_c5 - tauS_c2 + 100.0 z_c5_c2 <= 84.7325
  TravelSV_c5_c3: tauS_c5 - tauS_c3 + 100.0 z_c5_c3 <= 87.33
  TravelSV_c5_c4: tauS_c5 - tauS_c4 + 100.0 z_c5_c4 <= 81.9225
  TravelSV_c5_dN: tauS_c5 - tauS_dN + 100.0 z_c5_dN <= 88.7125
  time_window_c1_e: tauD_c1 + 8.0 o_1 >= 45.0
  time_window_c1_l: tauD_c1 + 8.0 o_1 <= 60.0
  time_window_c2_e: tauD_c2 + 8.0 o_2 >= 0.0
  time_window_c2_l: tauD_c2 + 8.0 o_2 <= 100.0
  time_window_c3_e: tauD_c3 + 8.0 o_3 >= 0.0
  time_window_c3_l: tauD_c3 + 8.0 o_3 <= 100.0
  time_window_c4_e: tauD_c4 + 8.0 o_4 >= 0.0
  time_window_c4_l: tauD_c4 + 8.0 o_4 <= 100.0
  time_window_c5_e: tauD_c5 + 8.0 o_5 >= 45.0
  time_window_c5_l: tauD_c5 + 8.0 o_5 <= 60.0
  SyncA_c1_c2_c2: 3.0 o_1 + 100.0 x_c1_c2 - tauD_c2 - 7.755 z_c1_c2 + [ tauS_c2 * z_c1_c2 ] <= 92.245
  SyncA_c1_c2_c3: 3.0 o_1 + 100.0 x_c1_c2 - tauD_c2 - 7.08 z_c1_c3 + [ tauS_c3 * z_c1_c3 ] <= 92.245
  SyncA_c1_c2_c4: 3.0 o_1 + 100.0 x_c1_c2 - tauD_c2 - 5.755 z_c1_c4 + [ tauS_c4 * z_c1_c4 ] <= 92.245
  SyncA_c1_c2_c5: 3.0 o_1 + 100.0 x_c1_c2 - tauD_c2 - 6.0475 z_c1_c5 + [ tauS_c5 * z_c1_c5 ] <= 92.245
  SyncA_c1_c2_dN: 3.0 o_1 + 100.0 x_c1_c2 - tauD_c2 - 2.7625 z_c1_dN + [ tauS_dN * z_c1_dN ] <= 92.245
  SyncA_c1_c3_c2: 3.0 o_1 + 100.0 x_c1_c3 - tauD_c3 - 7.755 z_c1_c2 + [ tauS_c2 * z_c1_c2 ] <= 92.92
  SyncA_c1_c3_c3: 3.0 o_1 + 100.0 x_c1_c3 - tauD_c3 - 7.08 z_c1_c3 + [ tauS_c3 * z_c1_c3 ] <= 92.92
  SyncA_c1_c3_c4: 3.0 o_1 + 100.0 x_c1_c3 - tauD_c3 - 5.755 z_c1_c4 + [ tauS_c4 * z_c1_c4 ] <= 92.92
  SyncA_c1_c3_c5: 3.0 o_1 + 100.0 x_c1_c3 - tauD_c3 - 6.0475 z_c1_c5 + [ tauS_c5 * z_c1_c5 ] <= 92.92
  SyncA_c1_c3_dN: 3.0 o_1 + 100.0 x_c1_c3 - tauD_c3 - 2.7625 z_c1_dN + [ tauS_dN * z_c1_dN ] <= 92.92
  SyncA_c1_c4_c2: 3.0 o_1 + 100.0 x_c1_c4 - tauD_c4 - 7.755 z_c1_c2 + [ tauS_c2 * z_c1_c2 ] <= 94.245
  SyncA_c1_c4_c3: 3.0 o_1 + 100.0 x_c1_c4 - tauD_c4 - 7.08 z_c1_c3 + [ tauS_c3 * z_c1_c3 ] <= 94.245
  SyncA_c1_c4_c4: 3.0 o_1 + 100.0 x_c1_c4 - tauD_c4 - 5.755 z_c1_c4 + [ tauS_c4 * z_c1_c4 ] <= 94.245
  SyncA_c1_c4_c5: 3.0 o_1 + 100.0 x_c1_c4 - tauD_c4 - 6.0475 z_c1_c5 + [ tauS_c5 * z_c1_c5 ] <= 94.245
  SyncA_c1_c4_dN: 3.0 o_1 + 100.0 x_c1_c4 - tauD_c4 - 2.7625 z_c1_dN + [ tauS_dN * z_c1_dN ] <= 94.245
  SyncA_c1_c5_c2: 3.0 o_1 + 100.0 x_c1_c5 - tauD_c5 - 7.755 z_c1_c2 + [ tauS_c2 * z_c1_c2 ] <= 93.9525
  SyncA_c1_c5_c3: 3.0 o_1 + 100.0 x_c1_c5 - tauD_c5 - 7.08 z_c1_c3 + [ tauS_c3 * z_c1_c3 ] <= 93.9525
  SyncA_c1_c5_c4: 3.0 o_1 + 100.0 x_c1_c5 - tauD_c5 - 5.755 z_c1_c4 + [ tauS_c4 * z_c1_c4 ] <= 93.9525
  SyncA_c1_c5_c5: 3.0 o_1 + 100.0 x_c1_c5 - tauD_c5 - 6.0475 z_c1_c5 + [ tauS_c5 * z_c1_c5 ] <= 93.9525
  SyncA_c1_c5_dN: 3.0 o_1 + 100.0 x_c1_c5 - tauD_c5 - 2.7625 z_c1_dN + [ tauS_dN * z_c1_dN ] <= 93.9525
  SyncA_c1_dN_c2: 3.0 o_1 + 100.0 x_c1_dN - tauD_dN - 7.755 z_c1_c2 + [ tauS_c2 * z_c1_c2 ] <= 97.2375
  SyncA_c1_dN_c3: 3.0 o_1 + 100.0 x_c1_dN - tauD_dN - 7.08 z_c1_c3 + [ tauS_c3 * z_c1_c3 ] <= 97.2375
  SyncA_c1_dN_c4: 3.0 o_1 + 100.0 x_c1_dN - tauD_dN - 5.755 z_c1_c4 + [ tauS_c4 * z_c1_c4 ] <= 97.2375
  SyncA_c1_dN_c5: 3.0 o_1 + 100.0 x_c1_dN - tauD_dN - 6.0475 z_c1_c5 + [ tauS_c5 * z_c1_c5 ] <= 97.2375
  SyncA_c1_dN_dN: 3.0 o_1 + 100.0 x_c1_dN - tauD_dN - 2.7625 z_c1_dN + [ tauS_dN * z_c1_dN ] <= 97.2375
  SyncA_c2_c1_c1: 5.0 o_2 + 100.0 x_c2_c1 - tauD_c1 - 7.755 z_c2_c1 + [ tauS_c1 * z_c2_c1 ] <= 92.245
  SyncA_c2_c1_c3: 5.0 o_2 + 100.0 x_c2_c1 - tauD_c1 - 2.8275 z_c2_c3 + [ tauS_c3 * z_c2_c3 ] <= 92.245
  SyncA_c2_c1_c4: 5.0 o_2 + 100.0 x_c2_c1 - tauD_c1 - 6.5 z_c2_c4 + [ tauS_c4 * z_c2_c4 ] <= 92.245
  SyncA_c2_c1_c5: 5.0 o_2 + 100.0 x_c2_c1 - tauD_c1 - 7.2675 z_c2_c5 + [ tauS_c5 * z_c2_c5 ] <= 92.245
  SyncA_c2_c1_dN: 5.0 o_2 + 100.0 x_c2_c1 - tauD_c1 - 7.0 z_c2_dN + [ tauS_dN * z_c2_dN ] <= 92.245
  SyncA_c2_c3_c1: 5.0 o_2 + 100.0 x_c2_c3 - tauD_c3 - 7.755 z_c2_c1 + [ tauS_c1 * z_c2_c1 ] <= 97.1725
  SyncA_c2_c3_c3: 5.0 o_2 + 100.0 x_c2_c3 - tauD_c3 - 2.8275 z_c2_c3 + [ tauS_c3 * z_c2_c3 ] <= 97.1725
  SyncA_c2_c3_c4: 5.0 o_2 + 100.0 x_c2_c3 - tauD_c3 - 6.5 z_c2_c4 + [ tauS_c4 * z_c2_c4 ] <= 97.1725
  SyncA_c2_c3_c5: 5.0 o_2 + 100.0 x_c2_c3 - tauD_c3 - 7.2675 z_c2_c5 + [ tauS_c5 * z_c2_c5 ] <= 97.1725
  SyncA_c2_c3_dN: 5.0 o_2 + 100.0 x_c2_c3 - tauD_c3 - 7.0 z_c2_dN + [ tauS_dN * z_c2_dN ] <= 97.1725
  SyncA_c2_c4_c1: 5.0 o_2 + 100.0 x_c2_c4 - tauD_c4 - 7.755 z_c2_c1 + [ tauS_c1 * z_c2_c1 ] <= 93.5
  SyncA_c2_c4_c3: 5.0 o_2 + 100.0 x_c2_c4 - tauD_c4 - 2.8275 z_c2_c3 + [ tauS_c3 * z_c2_c3 ] <= 93.5
  SyncA_c2_c4_c4: 5.0 o_2 + 100.0 x_c2_c4 - tauD_c4 - 6.5 z_c2_c4 + [ tauS_c4 * z_c2_c4 ] <= 93.5
  SyncA_c2_c4_c5: 5.0 o_2 + 100.0 x_c2_c4 - tauD_c4 - 7.2675 z_c2_c5 + [ tauS_c5 * z_c2_c5 ] <= 93.5
  SyncA_c2_c4_dN: 5.0 o_2 + 100.0 x_c2_c4 - tauD_c4 - 7.0 z_c2_dN + [ tauS_dN * z_c2_dN ] <= 93.5
  SyncA_c2_c5_c1: 5.0 o_2 + 100.0 x_c2_c5 - tauD_c5 - 7.755 z_c2_c1 + [ tauS_c1 * z_c2_c1 ] <= 92.7325
  SyncA_c2_c5_c3: 5.0 o_2 + 100.0 x_c2_c5 - tauD_c5 - 2.8275 z_c2_c3 + [ tauS_c3 * z_c2_c3 ] <= 92.7325
  SyncA_c2_c5_c4: 5.0 o_2 + 100.0 x_c2_c5 - tauD_c5 - 6.5 z_c2_c4 + [ tauS_c4 * z_c2_c4 ] <= 92.7325
  SyncA_c2_c5_c5: 5.0 o_2 + 100.0 x_c2_c5 - tauD_c5 - 7.2675 z_c2_c5 + [ tauS_c5 * z_c2_c5 ] <= 92.7325
  SyncA_c2_c5_dN: 5.0 o_2 + 100.0 x_c2_c5 - tauD_c5 - 7.0 z_c2_dN + [ tauS_dN * z_c2_dN ] <= 92.7325
  SyncA_c2_dN_c1: 5.0 o_2 + 100.0 x_c2_dN - tauD_dN - 7.755 z_c2_c1 + [ tauS_c1 * z_c2_c1 ] <= 93.0
  SyncA_c2_dN_c3: 5.0 o_2 + 100.0 x_c2_dN - tauD_dN - 2.8275 z_c2_c3 + [ tauS_c3 * z_c2_c3 ] <= 93.0
  SyncA_c2_dN_c4: 5.0 o_2 + 100.0 x_c2_dN - tauD_dN - 6.5 z_c2_c4 + [ tauS_c4 * z_c2_c4 ] <= 93.0
  SyncA_c2_dN_c5: 5.0 o_2 + 100.0 x_c2_dN - tauD_dN - 7.2675 z_c2_c5 + [ tauS_c5 * z_c2_c5 ] <= 93.0
  SyncA_c2_dN_dN: 5.0 o_2 + 100.0 x_c2_dN - tauD_dN - 7.0 z_c2_dN + [ tauS_dN * z_c2_dN ] <= 93.0
  SyncA_c3_c1_c1: 3.0 o_3 + 100.0 x_c3_c1 - tauD_c1 - 7.08 z_c3_c1 + [ tauS_c1 * z_c3_c1 ] <= 92.92
  SyncA_c3_c1_c2: 3.0 o_3 + 100.0 x_c3_c1 - tauD_c1 - 2.8275 z_c3_c2 + [ tauS_c2 * z_c3_c2 ] <= 92.92
  SyncA_c3_c1_c4: 3.0 o_3 + 100.0 x_c3_c1 - tauD_c1 - 8.015 z_c3_c4 + [ tauS_c4 * z_c3_c4 ] <= 92.92
  SyncA_c3_c1_c5: 3.0 o_3 + 100.0 x_c3_c1 - tauD_c1 - 4.67 z_c3_c5 + [ tauS_c5 * z_c3_c5 ] <= 92.92
  SyncA_c3_c1_dN: 3.0 o_3 + 100.0 x_c3_c1 - tauD_c1 - 5.385 z_c3_dN + [ tauS_dN * z_c3_dN ] <= 92.92
  SyncA_c3_c2_c1: 3.0 o_3 + 100.0 x_c3_c2 - tauD_c2 - 7.08 z_c3_c1 + [ tauS_c1 * z_c3_c1 ] <= 97.1725
  SyncA_c3_c2_c2: 3.0 o_3 + 100.0 x_c3_c2 - tauD_c2 - 2.8275 z_c3_c2 + [ tauS_c2 * z_c3_c2 ] <= 97.1725
  SyncA_c3_c2_c4: 3.0 o_3 + 100.0 x_c3_c2 - tauD_c2 - 8.015 z_c3_c4 + [ tauS_c4 * z_c3_c4 ] <= 97.1725
  SyncA_c3_c2_c5: 3.0 o_3 + 100.0 x_c3_c2 - tauD_c2 - 4.67 z_c3_c5 + [ tauS_c5 * z_c3_c5 ] <= 97.1725
  SyncA_c3_c2_dN: 3.0 o_3 + 100.0 x_c3_c2 - tauD_c2 - 5.385 z_c3_dN + [ tauS_dN * z_c3_dN ] <= 97.1725
  SyncA_c3_c4_c1: 3.0 o_3 + 100.0 x_c3_c4 - tauD_c4 - 7.08 z_c3_c1 + [ tauS_c1 * z_c3_c1 ] <= 91.985
  SyncA_c3_c4_c2: 3.0 o_3 + 100.0 x_c3_c4 - tauD_c4 - 2.8275 z_c3_c2 + [ tauS_c2 * z_c3_c2 ] <= 91.985
  SyncA_c3_c4_c4: 3.0 o_3 + 100.0 x_c3_c4 - tauD_c4 - 8.015 z_c3_c4 + [ tauS_c4 * z_c3_c4 ] <= 91.985
  SyncA_c3_c4_c5: 3.0 o_3 + 100.0 x_c3_c4 - tauD_c4 - 4.67 z_c3_c5 + [ tauS_c5 * z_c3_c5 ] <= 91.985
  SyncA_c3_c4_dN: 3.0 o_3 + 100.0 x_c3_c4 - tauD_c4 - 5.385 z_c3_dN + [ tauS_dN * z_c3_dN ] <= 91.985
  SyncA_c3_c5_c1: 3.0 o_3 + 100.0 x_c3_c5 - tauD_c5 - 7.08 z_c3_c1 + [ tauS_c1 * z_c3_c1 ] <= 95.33
  SyncA_c3_c5_c2: 3.0 o_3 + 100.0 x_c3_c5 - tauD_c5 - 2.8275 z_c3_c2 + [ tauS_c2 * z_c3_c2 ] <= 95.33
  SyncA_c3_c5_c4: 3.0 o_3 + 100.0 x_c3_c5 - tauD_c5 - 8.015 z_c3_c4 + [ tauS_c4 * z_c3_c4 ] <= 95.33
  SyncA_c3_c5_c5: 3.0 o_3 + 100.0 x_c3_c5 - tauD_c5 - 4.67 z_c3_c5 + [ tauS_c5 * z_c3_c5 ] <= 95.33
  SyncA_c3_c5_dN: 3.0 o_3 + 100.0 x_c3_c5 - tauD_c5 - 5.385 z_c3_dN + [ tauS_dN * z_c3_dN ] <= 95.33
  SyncA_c3_dN_c1: 3.0 o_3 + 100.0 x_c3_dN - tauD_dN - 7.08 z_c3_c1 + [ tauS_c1 * z_c3_c1 ] <= 94.615
  SyncA_c3_dN_c2: 3.0 o_3 + 100.0 x_c3_dN - tauD_dN - 2.8275 z_c3_c2 + [ tauS_c2 * z_c3_c2 ] <= 94.615
  SyncA_c3_dN_c4: 3.0 o_3 + 100.0 x_c3_dN - tauD_dN - 8.015 z_c3_c4 + [ tauS_c4 * z_c3_c4 ] <= 94.615
  SyncA_c3_dN_c5: 3.0 o_3 + 100.0 x_c3_dN - tauD_dN - 4.67 z_c3_c5 + [ tauS_c5 * z_c3_c5 ] <= 94.615
  SyncA_c3_dN_dN: 3.0 o_3 + 100.0 x_c3_dN - tauD_dN - 5.385 z_c3_dN + [ tauS_dN * z_c3_dN ] <= 94.615
  SyncA_c4_c1_c1: 3.0 o_4 + 100.0 x_c4_c1 - tauD_c1 - 5.755 z_c4_c1 + [ tauS_c1 * z_c4_c1 ] <= 94.245
  SyncA_c4_c1_c2: 3.0 o_4 + 100.0 x_c4_c1 - tauD_c1 - 6.5 z_c4_c2 + [ tauS_c2 * z_c4_c2 ] <= 94.245
  SyncA_c4_c1_c3: 3.0 o_4 + 100.0 x_c4_c1 - tauD_c1 - 8.015 z_c4_c3 + [ tauS_c3 * z_c4_c3 ] <= 94.245
  SyncA_c4_c1_c5: 3.0 o_4 + 100.0 x_c4_c1 - tauD_c1 - 10.0775 z_c4_c5 + [ tauS_c5 * z_c4_c5 ] <= 94.245
  SyncA_c4_c1_dN: 3.0 o_4 + 100.0 x_c4_c1 - tauD_c1 - 7.5 z_c4_dN + [ tauS_dN * z_c4_dN ] <= 94.245
  SyncA_c4_c2_c1: 3.0 o_4 + 100.0 x_c4_c2 - tauD_c2 - 5.755 z_c4_c1 + [ tauS_c1 * z_c4_c1 ] <= 93.5
  SyncA_c4_c2_c2: 3.0 o_4 + 100.0 x_c4_c2 - tauD_c2 - 6.5 z_c4_c2 + [ tauS_c2 * z_c4_c2 ] <= 93.5
  SyncA_c4_c2_c3: 3.0 o_4 + 100.0 x_c4_c2 - tauD_c2 - 8.015 z_c4_c3 + [ tauS_c3 * z_c4_c3 ] <= 93.5
  SyncA_c4_c2_c5: 3.0 o_4 + 100.0 x_c4_c2 - tauD_c2 - 10.0775 z_c4_c5 + [ tauS_c5 * z_c4_c5 ] <= 93.5
  SyncA_c4_c2_dN: 3.0 o_4 + 100.0 x_c4_c2 - tauD_c2 - 7.5 z_c4_dN + [ tauS_dN * z_c4_dN ] <= 93.5
  SyncA_c4_c3_c1: 3.0 o_4 + 100.0 x_c4_c3 - tauD_c3 - 5.755 z_c4_c1 + [ tauS_c1 * z_c4_c1 ] <= 91.985
  SyncA_c4_c3_c2: 3.0 o_4 + 100.0 x_c4_c3 - tauD_c3 - 6.5 z_c4_c2 + [ tauS_c2 * z_c4_c2 ] <= 91.985
  SyncA_c4_c3_c3: 3.0 o_4 + 100.0 x_c4_c3 - tauD_c3 - 8.015 z_c4_c3 + [ tauS_c3 * z_c4_c3 ] <= 91.985
  SyncA_c4_c3_c5: 3.0 o_4 + 100.0 x_c4_c3 - tauD_c3 - 10.0775 z_c4_c5 + [ tauS_c5 * z_c4_c5 ] <= 91.985
  SyncA_c4_c3_dN: 3.0 o_4 + 100.0 x_c4_c3 - tauD_c3 - 7.5 z_c4_dN + [ tauS_dN * z_c4_dN ] <= 91.985
  SyncA_c4_c5_c1: 3.0 o_4 + 100.0 x_c4_c5 - tauD_c5 - 5.755 z_c4_c1 + [ tauS_c1 * z_c4_c1 ] <= 89.9225
  SyncA_c4_c5_c2: 3.0 o_4 + 100.0 x_c4_c5 - tauD_c5 - 6.5 z_c4_c2 + [ tauS_c2 * z_c4_c2 ] <= 89.9225
  SyncA_c4_c5_c3: 3.0 o_4 + 100.0 x_c4_c5 - tauD_c5 - 8.015 z_c4_c3 + [ tauS_c3 * z_c4_c3 ] <= 89.9225
  SyncA_c4_c5_c5: 3.0 o_4 + 100.0 x_c4_c5 - tauD_c5 - 10.0775 z_c4_c5 + [ tauS_c5 * z_c4_c5 ] <= 89.9225
  SyncA_c4_c5_dN: 3.0 o_4 + 100.0 x_c4_c5 - tauD_c5 - 7.5 z_c4_dN + [ tauS_dN * z_c4_dN ] <= 89.9225
  SyncA_c4_dN_c1: 3.0 o_4 + 100.0 x_c4_dN - tauD_dN - 5.755 z_c4_c1 + [ tauS_c1 * z_c4_c1 ] <= 92.5
  SyncA_c4_dN_c2: 3.0 o_4 + 100.0 x_c4_dN - tauD_dN - 6.5 z_c4_c2 + [ tauS_c2 * z_c4_c2 ] <= 92.5
  SyncA_c4_dN_c3: 3.0 o_4 + 100.0 x_c4_dN - tauD_dN - 8.015 z_c4_c3 + [ tauS_c3 * z_c4_c3 ] <= 92.5
  SyncA_c4_dN_c5: 3.0 o_4 + 100.0 x_c4_dN - tauD_dN - 10.0775 z_c4_c5 + [ tauS_c5 * z_c4_c5 ] <= 92.5
  SyncA_c4_dN_dN: 3.0 o_4 + 100.0 x_c4_dN - tauD_dN - 7.5 z_c4_dN + [ tauS_dN * z_c4_dN ] <= 92.5
  SyncA_c5_c1_c1: 7.0 o_5 + 100.0 x_c5_c1 - tauD_c1 - 6.0475 z_c5_c1 + [ tauS_c1 * z_c5_c1 ] <= 93.9525
  SyncA_c5_c1_c2: 7.0 o_5 + 100.0 x_c5_c1 - tauD_c1 - 7.2675 z_c5_c2 + [ tauS_c2 * z_c5_c2 ] <= 93.9525
  SyncA_c5_c1_c3: 7.0 o_5 + 100.0 x_c5_c1 - tauD_c1 - 4.67 z_c5_c3 + [ tauS_c3 * z_c5_c3 ] <= 93.9525
  SyncA_c5_c1_c4: 7.0 o_5 + 100.0 x_c5_c1 - tauD_c1 - 10.0775 z_c5_c4 + [ tauS_c4 * z_c5_c4 ] <= 93.9525
  SyncA_c5_c1_dN: 7.0 o_5 + 100.0 x_c5_c1 - tauD_c1 - 3.2875 z_c5_dN + [ tauS_dN * z_c5_dN ] <= 93.9525
  SyncA_c5_c2_c1: 7.0 o_5 + 100.0 x_c5_c2 - tauD_c2 - 6.0475 z_c5_c1 + [ tauS_c1 * z_c5_c1 ] <= 92.7325
  SyncA_c5_c2_c2: 7.0 o_5 + 100.0 x_c5_c2 - tauD_c2 - 7.2675 z_c5_c2 + [ tauS_c2 * z_c5_c2 ] <= 92.7325
  SyncA_c5_c2_c3: 7.0 o_5 + 100.0 x_c5_c2 - tauD_c2 - 4.67 z_c5_c3 + [ tauS_c3 * z_c5_c3 ] <= 92.7325
  SyncA_c5_c2_c4: 7.0 o_5 + 100.0 x_c5_c2 - tauD_c2 - 10.0775 z_c5_c4 + [ tauS_c4 * z_c5_c4 ] <= 92.7325
  SyncA_c5_c2_dN: 7.0 o_5 + 100.0 x_c5_c2 - tauD_c2 - 3.2875 z_c5_dN + [ tauS_dN * z_c5_dN ] <= 92.7325
  SyncA_c5_c3_c1: 7.0 o_5 + 100.0 x_c5_c3 - tauD_c3 - 6.0475 z_c5_c1 + [ tauS_c1 * z_c5_c1 ] <= 95.33
  SyncA_c5_c3_c2: 7.0 o_5 + 100.0 x_c5_c3 - tauD_c3 - 7.2675 z_c5_c2 + [ tauS_c2 * z_c5_c2 ] <= 95.33
  SyncA_c5_c3_c3: 7.0 o_5 + 100.0 x_c5_c3 - tauD_c3 - 4.67 z_c5_c3 + [ tauS_c3 * z_c5_c3 ] <= 95.33
  SyncA_c5_c3_c4: 7.0 o_5 + 100.0 x_c5_c3 - tauD_c3 - 10.0775 z_c5_c4 + [ tauS_c4 * z_c5_c4 ] <= 95.33
  SyncA_c5_c3_dN: 7.0 o_5 + 100.0 x_c5_c3 - tauD_c3 - 3.2875 z_c5_dN + [ tauS_dN * z_c5_dN ] <= 95.33
  SyncA_c5_c4_c1: 7.0 o_5 + 100.0 x_c5_c4 - tauD_c4 - 6.0475 z_c5_c1 + [ tauS_c1 * z_c5_c1 ] <= 89.9225
  SyncA_c5_c4_c2: 7.0 o_5 + 100.0 x_c5_c4 - tauD_c4 - 7.2675 z_c5_c2 + [ tauS_c2 * z_c5_c2 ] <= 89.9225
  SyncA_c5_c4_c3: 7.0 o_5 + 100.0 x_c5_c4 - tauD_c4 - 4.67 z_c5_c3 + [ tauS_c3 * z_c5_c3 ] <= 89.9225
  SyncA_c5_c4_c4: 7.0 o_5 + 100.0 x_c5_c4 - tauD_c4 - 10.0775 z_c5_c4 + [ tauS_c4 * z_c5_c4 ] <= 89.9225
  SyncA_c5_c4_dN: 7.0 o_5 + 100.0 x_c5_c4 - tauD_c4 - 3.2875 z_c5_dN + [ tauS_dN * z_c5_dN ] <= 89.9225
  SyncA_c5_dN_c1: 7.0 o_5 + 100.0 x_c5_dN - tauD_dN - 6.0475 z_c5_c1 + [ tauS_c1 * z_c5_c1 ] <= 96.7125
  SyncA_c5_dN_c2: 7.0 o_5 + 100.0 x_c5_dN - tauD_dN - 7.2675 z_c5_c2 + [ tauS_c2 * z_c5_c2 ] <= 96.7125
  SyncA_c5_dN_c3: 7.0 o_5 + 100.0 x_c5_dN - tauD_dN - 4.67 z_c5_c3 + [ tauS_c3 * z_c5_c3 ] <= 96.7125
  SyncA_c5_dN_c4: 7.0 o_5 + 100.0 x_c5_dN - tauD_dN - 10.0775 z_c5_c4 + [ tauS_c4 * z_c5_c4 ] <= 96.7125
  SyncA_c5_dN_dN: 7.0 o_5 + 100.0 x_c5_dN - tauD_dN - 3.2875 z_c5_dN + [ tauS_dN * z_c5_dN ] <= 96.7125
  SVFirst_c1_c2: tauS_c2 - tauD_c1 + 3.0 o_1 - 100.0 z_c1_c2 >= -81.245
  SVFirst_c1_c3: tauS_c3 - tauD_c1 + 3.0 o_1 - 100.0 z_c1_c3 >= -81.92
  SVFirst_c1_c4: tauS_c4 - tauD_c1 + 3.0 o_1 - 100.0 z_c1_c4 >= -83.245
  SVFirst_c1_c5: tauS_c5 - tauD_c1 + 3.0 o_1 - 100.0 z_c1_c5 >= -82.9525
  SVFirst_c1_dN:  tauS_dN - tauD_c1 + 3.0 o_1 - 100.0 z_c1_dN >= -86.2375
  SVFirst_c2_c1: tauS_c1 - tauD_c2 + 5.0 o_2 - 100.0 z_c2_c1 >= -79.245
  SVFirst_c2_c3: tauS_c3 - tauD_c2 + 5.0 o_2 - 100.0 z_c2_c3 >= -84.1725
  SVFirst_c2_c4: tauS_c4 - tauD_c2 + 5.0 o_2 - 100.0 z_c2_c4 >= -80.5
  SVFirst_c2_c5: tauS_c5 - tauD_c2 + 5.0 o_2 - 100.0 z_c2_c5 >= -79.7325
  SVFirst_c2_dN:  tauS_dN - tauD_c2 + 5.0 o_2 - 100.0 z_c2_dN >= -80.0
  SVFirst_c3_c1: tauS_c1 - tauD_c3 + 3.0 o_3 - 100.0 z_c3_c1 >= -81.92
  SVFirst_c3_c2: tauS_c2 - tauD_c3 + 3.0 o_3 - 100.0 z_c3_c2 >= -86.1725
  SVFirst_c3_c4: tauS_c4 - tauD_c3 + 3.0 o_3 - 100.0 z_c3_c4 >= -80.985
  SVFirst_c3_c5: tauS_c5 - tauD_c3 + 3.0 o_3 - 100.0 z_c3_c5 >= -84.33
  SVFirst_c3_dN:  tauS_dN - tauD_c3 + 3.0 o_3 - 100.0 z_c3_dN >= -83.615
  SVFirst_c4_c1: tauS_c1 - tauD_c4 + 3.0 o_4 - 100.0 z_c4_c1 >= -83.245
  SVFirst_c4_c2: tauS_c2 - tauD_c4 + 3.0 o_4 - 100.0 z_c4_c2 >= -82.5
  SVFirst_c4_c3: tauS_c3 - tauD_c4 + 3.0 o_4 - 100.0 z_c4_c3 >= -80.985
  SVFirst_c4_c5: tauS_c5 - tauD_c4 + 3.0 o_4 - 100.0 z_c4_c5 >= -78.9225
  SVFirst_c4_dN:  tauS_dN - tauD_c4 + 3.0 o_4 - 100.0 z_c4_dN >= -81.5
  SVFirst_c5_c1: tauS_c1 - tauD_c5 + 7.0 o_5 - 100.0 z_c5_c1 >= -78.9525
  SVFirst_c5_c2: tauS_c2 - tauD_c5 + 7.0 o_5 - 100.0 z_c5_c2 >= -77.7325
  SVFirst_c5_c3: tauS_c3 - tauD_c5 + 7.0 o_5 - 100.0 z_c5_c3 >= -80.33
  SVFirst_c5_c4: tauS_c4 - tauD_c5 + 7.0 o_5 - 100.0 z_c5_c4 >= -74.9225
  SVFirst_c5_dN:  tauS_dN - tauD_c5 + 7.0 o_5 - 100.0 z_c5_dN >= -81.7125
  Precedence_Swap_c1:  p_1 - z_d0_c1 - z_c2_c1 - z_c3_c1 - z_c4_c1 - z_c5_c1 = 0
  Precedence_Swap_c2:  p_2 - z_d0_c2 - z_c1_c2 - z_c3_c2 - z_c4_c2 - z_c5_c2 = 0
  Precedence_Swap_c3:  p_3 - z_d0_c3 - z_c1_c3 - z_c2_c3 - z_c4_c3 - z_c5_c3 = 0
  Precedence_Swap_c4:  p_4 - z_d0_c4 - z_c1_c4 - z_c2_c4 - z_c3_c4 - z_c5_c4 = 0
  Precedence_Swap_c5:  p_5 - z_d0_c5 - z_c1_c5 - z_c2_c5 - z_c3_c5 - z_c4_c5 = 0
  Order_c1:  o_1 - p_1 <= 0
  Order_c2:  o_2 - p_2 <= 0
  Order_c3:  o_3 - p_3 <= 0
  Order_c4:  o_4 - p_4 <= 0
  Order_c5:  o_5 - p_5 <= 0
  WorkingTimeS_c1:  tauS_c1 <= 89.2375
  WorkingTimeS_c2:  tauS_c2 <= 85.0
  WorkingTimeS_c3:  tauS_c3 <= 86.615
  WorkingTimeS_c4:  tauS_c4 <= 84.5
  WorkingTimeS_c5:  tauS_c5 <= 88.7125
  FreightDV_c1_c2:  k_c2 - kDash_c1 - 10.0 p_1 + 10.0 x_c1_c2 + [ kDash_c1 * p_1 - kDash_c1 * o_1 + 10.0 p_1 * o_1 ] <= 10.0
  FreightDV_c1_c3:  k_c3 - kDash_c1 - 10.0 p_1 + 10.0 x_c1_c3 + [ kDash_c1 * p_1 - kDash_c1 * o_1 + 10.0 p_1 * o_1 ] <= 10.0
  FreightDV_c1_c4:  k_c4 - kDash_c1 - 10.0 p_1 + 10.0 x_c1_c4 + [ kDash_c1 * p_1 - kDash_c1 * o_1 + 10.0 p_1 * o_1 ] <= 10.0
  FreightDV_c1_c5:  k_c5 - kDash_c1 - 10.0 p_1 + 10.0 x_c1_c5 + [ kDash_c1 * p_1 - kDash_c1 * o_1 + 10.0 p_1 * o_1 ] <= 10.0
  FreightDV_c1_dN:  k_dN - kDash_c1 - 10.0 p_1 + 10.0 x_c1_dN + [ kDash_c1 * p_1 - kDash_c1 * o_1 + 10.0 p_1 * o_1 ] <= 10.0
  FreightDV_c1:  kDash_c1 - k_c1 - 10.0 o_1 + [ k_c1 * o_1 ] <= -4.0
  FreightDV_c2_c1:  k_c1 - kDash_c2 - 10.0 p_2 + 10.0 x_c2_c1 + [ kDash_c2 * p_2 - kDash_c2 * o_2 + 10.0 p_2 * o_2 ] <= 10.0
  FreightDV_c2_c3:  k_c3 - kDash_c2 - 10.0 p_2 + 10.0 x_c2_c3 + [ kDash_c2 * p_2 - kDash_c2 * o_2 + 10.0 p_2 * o_2 ] <= 10.0
  FreightDV_c2_c4:  k_c4 - kDash_c2 - 10.0 p_2 + 10.0 x_c2_c4 + [ kDash_c2 * p_2 - kDash_c2 * o_2 + 10.0 p_2 * o_2 ] <= 10.0
  FreightDV_c2_c5:  k_c5 - kDash_c2 - 10.0 p_2 + 10.0 x_c2_c5 + [ kDash_c2 * p_2 - kDash_c2 * o_2 + 10.0 p_2 * o_2 ] <= 10.0
  FreightDV_c2_dN:  k_dN - kDash_c2 - 10.0 p_2 + 10.0 x_c2_dN + [ kDash_c2 * p_2 - kDash_c2 * o_2 + 10.0 p_2 * o_2 ] <= 10.0
  FreightDV_c2:  kDash_c2 - k_c2 - 10.0 o_2 + [ k_c2 * o_2 ] <= -7.0
  FreightDV_c3_c1:  k_c1 - kDash_c3 - 10.0 p_3 + 10.0 x_c3_c1 + [ kDash_c3 * p_3 - kDash_c3 * o_3 + 10.0 p_3 * o_3 ] <= 10.0
  FreightDV_c3_c2:  k_c2 - kDash_c3 - 10.0 p_3 + 10.0 x_c3_c2 + [ kDash_c3 * p_3 - kDash_c3 * o_3 + 10.0 p_3 * o_3 ] <= 10.0
  FreightDV_c3_c4:  k_c4 - kDash_c3 - 10.0 p_3 + 10.0 x_c3_c4 + [ kDash_c3 * p_3 - kDash_c3 * o_3 + 10.0 p_3 * o_3 ] <= 10.0
  FreightDV_c3_c5:  k_c5 - kDash_c3 - 10.0 p_3 + 10.0 x_c3_c5 + [ kDash_c3 * p_3 - kDash_c3 * o_3 + 10.0 p_3 * o_3 ] <= 10.0
  FreightDV_c3_dN:  k_dN - kDash_c3 - 10.0 p_3 + 10.0 x_c3_dN + [ kDash_c3 * p_3 - kDash_c3 * o_3 + 10.0 p_3 * o_3 ] <= 10.0
  FreightDV_c3:  kDash_c3 - k_c3 - 10.0 o_3 + [ k_c3 * o_3 ] <= -4.0
  FreightDV_c4_c1:  k_c1 - kDash_c4 - 10.0 p_4 + 10.0 x_c4_c1 + [ kDash_c4 * p_4 - kDash_c4 * o_4 + 10.0 p_4 * o_4 ] <= 10.0
  FreightDV_c4_c2:  k_c2 - kDash_c4 - 10.0 p_4 + 10.0 x_c4_c2 + [ kDash_c4 * p_4 - kDash_c4 * o_4 + 10.0 p_4 * o_4 ] <= 10.0
  FreightDV_c4_c3:  k_c3 - kDash_c4 - 10.0 p_4 + 10.0 x_c4_c3 + [ kDash_c4 * p_4 - kDash_c4 * o_4 + 10.0 p_4 * o_4 ] <= 10.0
  FreightDV_c4_c5:  k_c5 - kDash_c4 - 10.0 p_4 + 10.0 x_c4_c5 + [ kDash_c4 * p_4 - kDash_c4 * o_4 + 10.0 p_4 * o_4 ] <= 10.0
  FreightDV_c4_dN:  k_dN - kDash_c4 - 10.0 p_4 + 10.0 x_c4_dN + [ kDash_c4 * p_4 - kDash_c4 * o_4 + 10.0 p_4 * o_4 ] <= 10.0
  FreightDV_c4:  kDash_c4 - k_c4 - 10.0 o_4 + [ k_c4 * o_4 ] <= -6.0
  FreightDV_c5_c1:  k_c1 - kDash_c5 - 10.0 p_5 + 10.0 x_c5_c1 + [ kDash_c5 * p_5 - kDash_c5 * o_5 + 10.0 p_5 * o_5 ] <= 10.0
  FreightDV_c5_c2:  k_c2 - kDash_c5 - 10.0 p_5 + 10.0 x_c5_c2 + [ kDash_c5 * p_5 - kDash_c5 * o_5 + 10.0 p_5 * o_5 ] <= 10.0
  FreightDV_c5_c3:  k_c3 - kDash_c5 - 10.0 p_5 + 10.0 x_c5_c3 + [ kDash_c5 * p_5 - kDash_c5 * o_5 + 10.0 p_5 * o_5 ] <= 10.0
  FreightDV_c5_c4:  k_c4 - kDash_c5 - 10.0 p_5 + 10.0 x_c5_c4 + [ kDash_c5 * p_5 - kDash_c5 * o_5 + 10.0 p_5 * o_5 ] <= 10.0
  FreightDV_c5_dN:  k_dN - kDash_c5 - 10.0 p_5 + 10.0 x_c5_dN + [ kDash_c5 * p_5 - kDash_c5 * o_5 + 10.0 p_5 * o_5 ] <= 10.0
  FreightDV_c5:  kDash_c5 - k_c5 - 10.0 o_5 + [ k_c5 * o_5 ] <= -7.0
  FreightSV_c1_c2:  pi_c2 - pi_c1 - kDash_c1 + 20.0 z_c1_c2 + [ kDash_c1 * o_1 - k_c1 * o_1 ] <= 10.0
  FreightSV_c1_c3:  pi_c3 - pi_c1 - kDash_c1 + 20.0 z_c1_c3 + [ kDash_c1 * o_1 - k_c1 * o_1 ] <= 10.0
  FreightSV_c1_c4:  pi_c4 - pi_c1 - kDash_c1 + 20.0 z_c1_c4 + [ kDash_c1 * o_1 - k_c1 * o_1 ] <= 10.0
  FreightSV_c1_c5:  pi_c5 - pi_c1 - kDash_c1 + 20.0 z_c1_c5 + [ kDash_c1 * o_1 - k_c1 * o_1 ] <= 10.0
  FreightSV_c1_dN:  pi_dN - pi_c1 - kDash_c1 + 20.0 z_c1_dN + [ kDash_c1 * o_1 - k_c1 * o_1 ] <= 10.0
  FreightSV_c2_c1:  pi_c1 - pi_c2 - kDash_c2 + 20.0 z_c2_c1 + [ kDash_c2 * o_2 - k_c2 * o_2 ] <= 10.0
  FreightSV_c2_c3:  pi_c3 - pi_c2 - kDash_c2 + 20.0 z_c2_c3 + [ kDash_c2 * o_2 - k_c2 * o_2 ] <= 10.0
  FreightSV_c2_c4:  pi_c4 - pi_c2 - kDash_c2 + 20.0 z_c2_c4 + [ kDash_c2 * o_2 - k_c2 * o_2 ] <= 10.0
  FreightSV_c2_c5:  pi_c5 - pi_c2 - kDash_c2 + 20.0 z_c2_c5 + [ kDash_c2 * o_2 - k_c2 * o_2 ] <= 10.0
  FreightSV_c2_dN:  pi_dN - pi_c2 - kDash_c2 + 20.0 z_c2_dN + [ kDash_c2 * o_2 - k_c2 * o_2 ] <= 10.0
  FreightSV_c3_c1:  pi_c1 - pi_c3 - kDash_c3 + 20.0 z_c3_c1 + [ kDash_c3 * o_3 - k_c3 * o_3 ] <= 10.0
  FreightSV_c3_c2:  pi_c2 - pi_c3 - kDash_c3 + 20.0 z_c3_c2 + [ kDash_c3 * o_3 - k_c3 * o_3 ] <= 10.0
  FreightSV_c3_c4:  pi_c4 - pi_c3 - kDash_c3 + 20.0 z_c3_c4 + [ kDash_c3 * o_3 - k_c3 * o_3 ] <= 10.0
  FreightSV_c3_c5:  pi_c5 - pi_c3 - kDash_c3 + 20.0 z_c3_c5 + [ kDash_c3 * o_3 - k_c3 * o_3 ] <= 10.0
  FreightSV_c3_dN:  pi_dN - pi_c3 - kDash_c3 + 20.0 z_c3_dN + [ kDash_c3 * o_3 - k_c3 * o_3 ] <= 10.0
  FreightSV_c4_c1:  pi_c1 - pi_c4 - kDash_c4 + 20.0 z_c4_c1 + [ kDash_c4 * o_4 - k_c4 * o_4 ] <= 10.0
  FreightSV_c4_c2:  pi_c2 - pi_c4 - kDash_c4 + 20.0 z_c4_c2 + [ kDash_c4 * o_4 - k_c4 * o_4 ] <= 10.0
  FreightSV_c4_c3:  pi_c3 - pi_c4 - kDash_c4 + 20.0 z_c4_c3 + [ kDash_c4 * o_4 - k_c4 * o_4 ] <= 10.0
  FreightSV_c4_c5:  pi_c5 - pi_c4 - kDash_c4 + 20.0 z_c4_c5 + [ kDash_c4 * o_4 - k_c4 * o_4 ] <= 10.0
  FreightSV_c4_dN:  pi_dN - pi_c4 - kDash_c4 + 20.0 z_c4_dN + [ kDash_c4 * o_4 - k_c4 * o_4 ] <= 10.0
  FreightSV_c5_c1:  pi_c1 - pi_c5 - kDash_c5 + 20.0 z_c5_c1 + [ kDash_c5 * o_5 - k_c5 * o_5 ] <= 10.0
  FreightSV_c5_c2:  pi_c2 - pi_c5 - kDash_c5 + 20.0 z_c5_c2 + [ kDash_c5 * o_5 - k_c5 * o_5 ] <= 10.0
  FreightSV_c5_c3:  pi_c3 - pi_c5 - kDash_c5 + 20.0 z_c5_c3 + [ kDash_c5 * o_5 - k_c5 * o_5 ] <= 10.0
  FreightSV_c5_c4:  pi_c4 - pi_c5 - kDash_c5 + 20.0 z_c5_c4 + [ kDash_c5 * o_5 - k_c5 * o_5 ] <= 10.0
  FreightSV_c5_dN:  pi_dN - pi_c5 - kDash_c5 + 20.0 z_c5_dN + [ kDash_c5 * o_5 - k_c5 * o_5 ] <= 10.0
  FuelDV_d0_c1:  phi_c1 - phi_d0 + 12.7392 x_d0_c1 <= 12.0
  FuelDV_d0_c2:  phi_c2 - phi_d0 + 13.8732 x_d0_c2 <= 12.0
  FuelDV_d0_c3:  phi_c3 - phi_d0 + 13.441 x_d0_c3 <= 12.0
  FuelDV_d0_c4:  phi_c4 - phi_d0 + 14.007 x_d0_c4 <= 12.0
  FuelDV_d0_c5:  phi_c5 - phi_d0 + 12.8797 x_d0_c5 <= 12.0
  FuelDV_c1_c2:  phi_c2 - phi_c1 + 14.0752 x_c1_c2 <= 12.0
  FuelDV_c1_c3:  phi_c3 - phi_c1 + 13.8946 x_c1_c3 <= 12.0
  FuelDV_c1_c4:  phi_c4 - phi_c1 + 13.54 x_c1_c4 <= 12.0
  FuelDV_c1_c5:  phi_c5 - phi_c1 + 13.6183 x_c1_c5 <= 12.0
  FuelDV_c1_dN:  phi_dN - phi_c1 + 12.7392 x_c1_dN <= 12.0
  FuelDV_c2_c1:  phi_c1 - phi_c2 + 14.0752 x_c2_c1 <= 12.0
  FuelDV_c2_c3:  phi_c3 - phi_c2 + 12.7566 x_c2_c3 <= 12.0
  FuelDV_c2_c4:  phi_c4 - phi_c2 + 13.7394 x_c2_c4 <= 12.0
  FuelDV_c2_c5:  phi_c5 - phi_c2 + 13.9448 x_c2_c5 <= 12.0
  FuelDV_c2_dN:  phi_dN - phi_c2 + 13.8732 x_c2_dN <= 12.0
  FuelDV_c3_c1:  phi_c1 - phi_c3 + 13.8946 x_c3_c1 <= 12.0
  FuelDV_c3_c2:  phi_c2 - phi_c3 + 12.7566 x_c3_c2 <= 12.0
  FuelDV_c3_c4:  phi_c4 - phi_c3 + 14.1448 x_c3_c4 <= 12.0
  FuelDV_c3_c5:  phi_c5 - phi_c3 + 13.2497 x_c3_c5 <= 12.0
  FuelDV_c3_dN:  phi_dN - phi_c3 + 13.441 x_c3_dN <= 12.0
  FuelDV_c4_c1:  phi_c1 - phi_c4 + 13.54 x_c4_c1 <= 12.0
  FuelDV_c4_c2:  phi_c2 - phi_c4 + 13.7394 x_c4_c2 <= 12.0
  FuelDV_c4_c3:  phi_c3 - phi_c4 + 14.1448 x_c4_c3 <= 12.0
  FuelDV_c4_c5:  phi_c5 - phi_c4 + 14.6967 x_c4_c5 <= 12.0
  FuelDV_c4_dN:  phi_dN - phi_c4 + 14.007 x_c4_dN <= 12.0
  FuelDV_c5_c1:  phi_c1 - phi_c5 + 13.6183 x_c5_c1 <= 12.0
  FuelDV_c5_c2:  phi_c2 - phi_c5 + 13.9448 x_c5_c2 <= 12.0
  FuelDV_c5_c3:  phi_c3 - phi_c5 + 13.2497 x_c5_c3 <= 12.0
  FuelDV_c5_c4:  phi_c4 - phi_c5 + 14.6967 x_c5_c4 <= 12.0
  FuelDV_c5_dN:  phi_dN - phi_c5 + 12.8797 x_c5_dN <= 12.0
  WorkingTimeD_c1:  tauD_c1 + 8.0 p_1 <= 94.2375
  WorkingTimeD_c2:  tauD_c2 + 8.0 p_2 <= 88.0
  WorkingTimeD_c3:  tauD_c3 + 8.0 p_3 <= 91.615
  WorkingTimeD_c4:  tauD_c4 + 8.0 p_4 <= 89.5
  WorkingTimeD_c5:  tauD_c5 + 8.0 p_5 <= 89.7125
Bounds
0 <= kDash_c1 <= 10.0
0 <= kDash_c2 <= 10.0
0 <= kDash_c3 <= 10.0
0 <= kDash_c4 <= 10.0
0 <= kDash_c5 <= 10.0
0 <= kDash_dN <= 10.0
0 <= k_c1 <= 10.0
0 <= k_c2 <= 10.0
0 <= k_c3 <= 10.0
0 <= k_c4 <= 10.0
0 <= k_c5 <= 10.0
0 <= k_dN <= 10.0
0 <= phi_c1 <= 12.0
0 <= phi_c2 <= 12.0
0 <= phi_c3 <= 12.0
0 <= phi_c4 <= 12.0
0 <= phi_c5 <= 12.0
0 <= phi_d0 <= 12.0
0 <= phi_dN <= 12.0
0 <= pi_c1 <= 50.0
0 <= pi_c2 <= 50.0
0 <= pi_c3 <= 50.0
0 <= pi_c4 <= 50.0
0 <= pi_c5 <= 50.0
0 <= pi_dN <= 50.0
0 <= tauD_c1 <= 100.0
0 <= tauD_c2 <= 100.0
0 <= tauD_c3 <= 100.0
0 <= tauD_c4 <= 100.0
0 <= tauD_c5 <= 100.0
0 <= tauD_d0 <= 100.0
0 <= tauD_dN <= 100.0
0 <= tauS_c1 <= 100.0
0 <= tauS_c2 <= 100.0
0 <= tauS_c3 <= 100.0
0 <= tauS_c4 <= 100.0
0 <= tauS_c5 <= 100.0
0 <= tauS_d0 <= 100.0
0 <= tauS_dN <= 100.0
Generals
  kDash_c1
  kDash_c2
  kDash_c3
  kDash_c4
  kDash_c5
  kDash_dN
  k_c1
  k_c2
  k_c3
  k_c4
  k_c5
  k_dN
  phi_c1
  phi_c2
  phi_c3
  phi_c4
  phi_c5
  phi_d0
  phi_dN
  pi_c1
  pi_c2
  pi_c3
  pi_c4
  pi_c5
  pi_dN
  tauD_c1
  tauD_c2
  tauD_c3
  tauD_c4
  tauD_c5
  tauD_d0
  tauD_dN
  tauS_c1
  tauS_c2
  tauS_c3
  tauS_c4
  tauS_c5
  tauS_d0
  tauS_dN
Binary
  o_1
  o_2
  o_3
  o_4
  o_5
  p_1
  p_2
  p_3
  p_4
  p_5
  x_c1_c2
  x_c1_c3
  x_c1_c4
  x_c1_c5
  x_c1_dN
  x_c2_c1
  x_c2_c3
  x_c2_c4
  x_c2_c5
  x_c2_dN
  x_c3_c1
  x_c3_c2
  x_c3_c4
  x_c3_c5
  x_c3_dN
  x_c4_c1
  x_c4_c2
  x_c4_c3
  x_c4_c5
  x_c4_dN
  x_c5_c1
  x_c5_c2
  x_c5_c3
  x_c5_c4
  x_c5_dN
  x_d0_c1
  x_d0_c2
  x_d0_c3
  x_d0_c4
  x_d0_c5
  z_c1_c2
  z_c1_c3
  z_c1_c4
  z_c1_c5
  z_c1_dN
  z_c2_c1
  z_c2_c3
  z_c2_c4
  z_c2_c5
  z_c2_dN
  z_c3_c1
  z_c3_c2
  z_c3_c4
  z_c3_c5
  z_c3_dN
  z_c4_c1
  z_c4_c2
  z_c4_c3
  z_c4_c5
  z_c4_dN
  z_c5_c1
  z_c5_c2
  z_c5_c3
  z_c5_c4
  z_c5_dN
  z_d0_c1
  z_d0_c2
  z_d0_c3
  z_d0_c4
  z_d0_c5
End
