VRPTWMS/instances/mip/freight/5/N5-C_DV10-C_SV50_F12_22_No_1.log

Gurobi 6.0.4 (win64) logging started 06/13/15 23:06:44

Warning: unknown variable 'kDash_dN' in bounds section
Read LP format model from file C:\MT\repository\VRPTWMS\instances\mip\freight\N5-C_DV10-C_SV50_F12_22_No_1.lp
Reading time = 0.00 seconds
(null): 161 rows, 110 columns, 603 nonzeros
Optimize a model with 161 rows, 110 columns and 603 nonzeros
Model has 180 quadratic constraints
WARNING: Only barrier available for SOCP models
Coefficient statistics:
  Matrix range    [1e+00, 1e+02]
  Objective range [1e+01, 1e+03]
  Bounds range    [1e+00, 1e+02]
  RHS range       [1e+00, 1e+02]
Presolve removed 16 rows and 6 columns
Presolve time: 0.02s
Presolved: 630 rows, 359 columns, 2738 nonzeros
Variable types: 230 continuous, 129 integer (95 binary)
Found heuristic solution: objective 5207.4800000
Optimize a model with 630 rows, 359 columns and 2738 nonzeros
Coefficient statistics:
  Matrix range    [1e+00, 1e+02]
  Objective range [1e+01, 1e+03]
  Bounds range    [1e+00, 1e+02]
  RHS range       [1e+00, 1e+02]
Presolve removed 38 rows and 22 columns
Presolved: 592 rows, 337 columns, 2570 nonzeros


Root relaxation: objective 1.052048e+02, 84 iterations, 0.00 seconds

    Nodes    |    Current Node    |     Objective Bounds      |     Work
 Expl Unexpl |  Obj  Depth IntInf | Incumbent    BestBd   Gap | It/Node Time

     0     0  105.20478    0   54 5207.48000  105.20478  98.0%     -    0s
H    0     0                    4189.4500000  105.20478  97.5%     -    0s
     0     0  121.30029    0   63 4189.45000  121.30029  97.1%     -    0s
H    0     0                    3202.2900000  121.30029  96.2%     -    0s
     0     0  127.42070    0   69 3202.29000  127.42070  96.0%     -    0s
     0     0  127.42070    0   75 3202.29000  127.42070  96.0%     -    0s
     0     0  127.42070    0   63 3202.29000  127.42070  96.0%     -    0s
     0     0  127.42070    0   63 3202.29000  127.42070  96.0%     -    0s
     0     0  127.42070    0   64 3202.29000  127.42070  96.0%     -    0s
     0     0  127.42070    0   60 3202.29000  127.42070  96.0%     -    0s
     0     2  127.42070    0   56 3202.29000  127.42070  96.0%     -    0s
H  518   248                    3180.0700000  195.79561  93.8%  36.8    0s

Explored 4899 nodes (193507 simplex iterations) in 4.67 seconds
Thread count was 2 (of 4 available processors)

Optimal solution found (tolerance 1.00e-04)
Best objective 3.180070000000e+03, best bound 3.180070000000e+03, gap 0.0%
k_c1	4.0
k_c2	10.0
k_c3	10.0
k_c4	10.0
k_c5	10.0
k_dN	0.0
kDash_c1	0.0
kDash_c2	3.0
kDash_c3	6.0
kDash_c4	4.0
kDash_c5	3.0
kDash_dN	-0.0
o_1	0.0
o_2	0.0
o_3	-0.0
o_4	0.0
o_5	-0.0
p_1	0.0
p_2	1.0
p_3	1.0
p_4	0.0
p_5	-0.0
phi_c1	1.0
phi_c2	6.0
phi_c3	10.0
phi_c4	3.0
phi_c5	11.0
phi_d0	12.0
phi_dN	-0.0
pi_c1	40.0
pi_c2	28.0
pi_c3	32.0
pi_c4	27.0
pi_c5	40.0
pi_dN	0.0
tauD_c1	60.0
tauD_c2	20.0
tauD_c3	6.0
tauD_c4	51.0
tauD_c5	45.0
tauD_d0	-0.0
tauD_dN	100.0
tauS_c1	89.0
tauS_c2	20.0
tauS_c3	6.0
tauS_c4	7.0
tauS_c5	88.0
tauS_d0	-0.0
tauS_dN	51.0
x_c1_dN	1.0
x_c2_c4	1.0
x_c3_c2	1.0
x_c4_c1	1.0
x_c5_dN	1.0
x_d0_c3	1.0
x_d0_c5	1.0
z_c2_dN	1.0
z_c3_c2	1.0
z_d0_c3	1.0
